50
150
95
94
93
93
91
89
89
89
88
85
82
82
78
78
77
76
73
73
73
70
70
70
70
69
68
66
63
62
59
55
55
53
51
49
42
42
41
41
40
38
35
32
31
30
30
28
28
24
23
23
